RAW/XY/fspd-mid/X-n134-k13.vrp_seed-3.out
8131	103.106	189.141
