RAW/XY/fspd-mid/X-n134-k13.vrp_seed-3.sol
Route #1: 132 109 78 83
Route #2: 74 26 35 32 62 24 54 110 123 56 87
Route #3: 14 39 73 18 59 96 13 97 5 77 53 66 93 94 45 21 46 106 12 133 82 80 76
Route #4: 118 91 51 16 47 9 2 25 48 57 85 33 124 72 3 38 50 19
Route #5: 128 115 29 119 61 71 49 69 1 92 31 125
Route #6: 40 95 60 58 34 41 105 116 129 131 114 11 122 100
Route #7: 52 101 89 113 108 90 43 36 99 104 111 120 79 117 64 112 127
Route #8: 6 121 7 63 15 81 68 30 23 98 44 8 107 84 70 4 27 22 67 55 126 20 75 28 65 42 102 88 37 10 103 86 130 17
Cost 8131.000000